% Logging successfully configured
%%%mzn-stat: initTime=0.012113966
%%%mzn-stat: objective=406
%%%mzn-stat: nodes=594
%%%mzn-stat: restarts=0
%%%mzn-stat: peakDepth=594
%%%mzn-stat: solveTime=0.005220834
%%%mzn-stat: variables=1114
%%%mzn-stat: propagators=816
%%%mzn-stat: failures=0
%%%mzn-stat: propagations=2729
%%%mzn-stat: nogoods=0
%%%mzn-stat: numAtomicConstraintsPropagated=0
%%%mzn-stat: circuitNumber1PropagationsTotal=86
%%%mzn-stat: circuitNumber1CircuitConflicts=0
%%%mzn-stat: circuitNumber1AlldiffConflicts=0
%%%mzn-stat: circuitNumber1TotalFixedEdgesAtConflict=0
%%%mzn-stat: circuitNumber1NumberOfConflicts=0
%%%mzn-stat: circuitNumber1GacPrunings=288
%%%mzn-stat: circuitNumber1PropagationsThatGacPruned=43
%%%mzn-stat: circuitNumber1TotalPruningHallSetSize=351
%%%mzn-stat: circuitNumber1NumberOfPruningExplanations=288
%%%mzn-stat: circuitNumber1MaxPruningHallSetSize=7
%%%mzn-stat: circuitNumber1TotalSccSizeAtPruning=83
%%%mzn-stat: circuitNumber1NumberOfSccPruningCalls=43
%%%mzn-stat: circuitNumber1TotalVarsInvolvedInPruning=284
%%%mzn-stat: circuitNumber1MaxValuesPrunedFromSingleVar=3
%%%mzn-stat: circuitNumber1HallCircuitChecks=143
%%%mzn-stat: circuitNumber1HallCircuitPrunings=8
%%%mzn-stat: circuitNumber1CircuitPreventPrunings=16
%%%mzn-stat: AverageConflictSize=0
%%%mzn-stat: NumUnitNogoodsLearned=0
%%%mzn-stat: AverageLearnedNogoodLength=0
%%%mzn-stat: AverageBacktrackAmount=0
%%%mzn-stat: AverageLbd=0
%%%mzn-stat: 2AutonomousSearchNumBackupCalled=553
%%%mzn-stat: 2AutonomousSearchNumPredicatesRemoved=0
%%%mzn-stat: 2AutonomousSearchNumCalls=554
%%%mzn-stat: 2AutonomousSearchNumPredicatesAdded=0
%%%mzn-stat: 2AutonomousSearchAverageSizeOfHeap=0
%%%mzn-stat: 2AutonomousSearchNumAssignedPredicatesEncountered=0
%%%mzn-stat-end
maxleg = 406;
succ = array1d(1..50,[2, 4, 9, 5, 12, 7, 13, 6, 1, 8, 17, 14, 20, 22, 19, 10, 3, 21, 16, 23, 27, 34, 28, 29, 15, 11, 26, 36, 18, 24, 46, 25, 30, 35, 38, 31, 42, 44, 32, 47, 33, 50, 39, 45, 40, 37, 48, 43, 41, 49]);
% time elapsed: 0.40 s
----------
%%%mzn-stat: initTime=0.012113966
%%%mzn-stat: objective=378
%%%mzn-stat: nodes=1184
%%%mzn-stat: restarts=0
%%%mzn-stat: peakDepth=594
%%%mzn-stat: solveTime=0.011547063
%%%mzn-stat: variables=1114
%%%mzn-stat: propagators=816
%%%mzn-stat: failures=1
%%%mzn-stat: propagations=4095
%%%mzn-stat: nogoods=1
%%%mzn-stat: numAtomicConstraintsPropagated=0
%%%mzn-stat: circuitNumber1PropagationsTotal=179
%%%mzn-stat: circuitNumber1CircuitConflicts=1
%%%mzn-stat: circuitNumber1AlldiffConflicts=0
%%%mzn-stat: circuitNumber1TotalFixedEdgesAtConflict=42
%%%mzn-stat: circuitNumber1NumberOfConflicts=1
%%%mzn-stat: circuitNumber1GacPrunings=580
%%%mzn-stat: circuitNumber1PropagationsThatGacPruned=90
%%%mzn-stat: circuitNumber1TotalPruningHallSetSize=714
%%%mzn-stat: circuitNumber1NumberOfPruningExplanations=580
%%%mzn-stat: circuitNumber1MaxPruningHallSetSize=13
%%%mzn-stat: circuitNumber1TotalSccSizeAtPruning=174
%%%mzn-stat: circuitNumber1NumberOfSccPruningCalls=90
%%%mzn-stat: circuitNumber1TotalVarsInvolvedInPruning=571
%%%mzn-stat: circuitNumber1MaxValuesPrunedFromSingleVar=3
%%%mzn-stat: circuitNumber1HallCircuitChecks=303
%%%mzn-stat: circuitNumber1HallCircuitPrunings=18
%%%mzn-stat: circuitNumber1CircuitPreventPrunings=32
%%%mzn-stat: AverageConflictSize=2
%%%mzn-stat: NumUnitNogoodsLearned=0
%%%mzn-stat: AverageLearnedNogoodLength=4
%%%mzn-stat: AverageBacktrackAmount=0
%%%mzn-stat: AverageLbd=4
%%%mzn-stat: 2AutonomousSearchNumBackupCalled=1100
%%%mzn-stat: 2AutonomousSearchNumPredicatesRemoved=0
%%%mzn-stat: 2AutonomousSearchNumCalls=1102
%%%mzn-stat: 2AutonomousSearchNumPredicatesAdded=30
%%%mzn-stat: 2AutonomousSearchAverageSizeOfHeap=0.02722323049001815
%%%mzn-stat: 2AutonomousSearchNumAssignedPredicatesEncountered=30
%%%mzn-stat-end
maxleg = 378;
succ = array1d(1..50,[2, 4, 9, 5, 12, 7, 13, 6, 1, 8, 17, 14, 20, 22, 19, 10, 3, 21, 16, 23, 27, 34, 28, 29, 15, 11, 26, 36, 18, 24, 46, 25, 30, 35, 38, 42, 50, 44, 32, 47, 33, 37, 39, 45, 40, 49, 48, 43, 41, 31]);
% time elapsed: 0.40 s
----------
%%%mzn-stat: initTime=0.012113966
%%%mzn-stat: objective=363
%%%mzn-stat: nodes=1767
%%%mzn-stat: restarts=0
%%%mzn-stat: peakDepth=594
%%%mzn-stat: solveTime=0.018316711
%%%mzn-stat: variables=1114
%%%mzn-stat: propagators=816
%%%mzn-stat: failures=5
%%%mzn-stat: propagations=5512
%%%mzn-stat: nogoods=5
%%%mzn-stat: numAtomicConstraintsPropagated=0
%%%mzn-stat: circuitNumber1PropagationsTotal=283
%%%mzn-stat: circuitNumber1CircuitConflicts=2
%%%mzn-stat: circuitNumber1AlldiffConflicts=0
%%%mzn-stat: circuitNumber1TotalFixedEdgesAtConflict=84
%%%mzn-stat: circuitNumber1NumberOfConflicts=2
%%%mzn-stat: circuitNumber1GacPrunings=891
%%%mzn-stat: circuitNumber1PropagationsThatGacPruned=144
%%%mzn-stat: circuitNumber1TotalPruningHallSetSize=1226
%%%mzn-stat: circuitNumber1NumberOfPruningExplanations=891
%%%mzn-stat: circuitNumber1MaxPruningHallSetSize=20
%%%mzn-stat: circuitNumber1TotalSccSizeAtPruning=323
%%%mzn-stat: circuitNumber1NumberOfSccPruningCalls=144
%%%mzn-stat: circuitNumber1TotalVarsInvolvedInPruning=870
%%%mzn-stat: circuitNumber1MaxValuesPrunedFromSingleVar=3
%%%mzn-stat: circuitNumber1HallCircuitChecks=485
%%%mzn-stat: circuitNumber1HallCircuitPrunings=29
%%%mzn-stat: circuitNumber1CircuitPreventPrunings=54
%%%mzn-stat: AverageConflictSize=6.2
%%%mzn-stat: NumUnitNogoodsLearned=0
%%%mzn-stat: AverageLearnedNogoodLength=16
%%%mzn-stat: AverageBacktrackAmount=0
%%%mzn-stat: AverageLbd=14.4
%%%mzn-stat: 2AutonomousSearchNumBackupCalled=1635
%%%mzn-stat: 2AutonomousSearchNumPredicatesRemoved=0
%%%mzn-stat: 2AutonomousSearchNumCalls=1638
%%%mzn-stat: 2AutonomousSearchNumPredicatesAdded=195
%%%mzn-stat: 2AutonomousSearchAverageSizeOfHeap=0.12698412698412698
%%%mzn-stat: 2AutonomousSearchNumAssignedPredicatesEncountered=208
%%%mzn-stat-end
maxleg = 363;
succ = array1d(1..50,[2, 4, 9, 5, 12, 7, 13, 6, 1, 8, 17, 14, 20, 22, 19, 24, 3, 10, 16, 23, 18, 34, 28, 29, 15, 11, 21, 36, 41, 33, 26, 25, 37, 35, 38, 46, 42, 44, 32, 47, 30, 27, 39, 45, 40, 49, 48, 43, 50, 31]);
% time elapsed: 0.40 s
----------
%%%mzn-stat: initTime=0.012113966
%%%mzn-stat: objective=361
%%%mzn-stat: nodes=2338
%%%mzn-stat: restarts=0
%%%mzn-stat: peakDepth=594
%%%mzn-stat: solveTime=0.022869728
%%%mzn-stat: variables=1114
%%%mzn-stat: propagators=816
%%%mzn-stat: failures=5
%%%mzn-stat: propagations=6880
%%%mzn-stat: nogoods=5
%%%mzn-stat: numAtomicConstraintsPropagated=0
%%%mzn-stat: circuitNumber1PropagationsTotal=363
%%%mzn-stat: circuitNumber1CircuitConflicts=2
%%%mzn-stat: circuitNumber1AlldiffConflicts=0
%%%mzn-stat: circuitNumber1TotalFixedEdgesAtConflict=84
%%%mzn-stat: circuitNumber1NumberOfConflicts=2
%%%mzn-stat: circuitNumber1GacPrunings=1155
%%%mzn-stat: circuitNumber1PropagationsThatGacPruned=184
%%%mzn-stat: circuitNumber1TotalPruningHallSetSize=1658
%%%mzn-stat: circuitNumber1NumberOfPruningExplanations=1155
%%%mzn-stat: circuitNumber1MaxPruningHallSetSize=20
%%%mzn-stat: circuitNumber1TotalSccSizeAtPruning=447
%%%mzn-stat: circuitNumber1NumberOfSccPruningCalls=184
%%%mzn-stat: circuitNumber1TotalVarsInvolvedInPruning=1125
%%%mzn-stat: circuitNumber1MaxValuesPrunedFromSingleVar=3
%%%mzn-stat: circuitNumber1HallCircuitChecks=609
%%%mzn-stat: circuitNumber1HallCircuitPrunings=34
%%%mzn-stat: circuitNumber1CircuitPreventPrunings=73
%%%mzn-stat: AverageConflictSize=6.2
%%%mzn-stat: NumUnitNogoodsLearned=0
%%%mzn-stat: AverageLearnedNogoodLength=16
%%%mzn-stat: AverageBacktrackAmount=0
%%%mzn-stat: AverageLbd=14.4
%%%mzn-stat: 2AutonomousSearchNumBackupCalled=2168
%%%mzn-stat: 2AutonomousSearchNumPredicatesRemoved=0
%%%mzn-stat: 2AutonomousSearchNumCalls=2172
%%%mzn-stat: 2AutonomousSearchNumPredicatesAdded=195
%%%mzn-stat: 2AutonomousSearchAverageSizeOfHeap=0.17771639042357273
%%%mzn-stat: 2AutonomousSearchNumAssignedPredicatesEncountered=386
%%%mzn-stat-end
maxleg = 361;
succ = array1d(1..50,[2, 4, 9, 5, 12, 7, 13, 6, 1, 8, 17, 14, 20, 22, 19, 24, 3, 10, 16, 23, 18, 34, 28, 29, 15, 11, 21, 36, 41, 33, 26, 25, 37, 35, 38, 46, 42, 44, 32, 48, 30, 27, 39, 45, 40, 49, 43, 47, 50, 31]);
% time elapsed: 0.40 s
----------
%%%mzn-stat: initTime=0.012113966
%%%mzn-stat: objective=356
%%%mzn-stat: nodes=2896
%%%mzn-stat: restarts=0
%%%mzn-stat: peakDepth=594
%%%mzn-stat: solveTime=0.028141919
%%%mzn-stat: variables=1114
%%%mzn-stat: propagators=816
%%%mzn-stat: failures=5
%%%mzn-stat: propagations=8216
%%%mzn-stat: nogoods=5
%%%mzn-stat: numAtomicConstraintsPropagated=0
%%%mzn-stat: circuitNumber1PropagationsTotal=443
%%%mzn-stat: circuitNumber1CircuitConflicts=2
%%%mzn-stat: circuitNumber1AlldiffConflicts=0
%%%mzn-stat: circuitNumber1TotalFixedEdgesAtConflict=84
%%%mzn-stat: circuitNumber1NumberOfConflicts=2
%%%mzn-stat: circuitNumber1GacPrunings=1418
%%%mzn-stat: circuitNumber1PropagationsThatGacPruned=224
%%%mzn-stat: circuitNumber1TotalPruningHallSetSize=2070
%%%mzn-stat: circuitNumber1NumberOfPruningExplanations=1418
%%%mzn-stat: circuitNumber1MaxPruningHallSetSize=20
%%%mzn-stat: circuitNumber1TotalSccSizeAtPruning=571
%%%mzn-stat: circuitNumber1NumberOfSccPruningCalls=224
%%%mzn-stat: circuitNumber1TotalVarsInvolvedInPruning=1380
%%%mzn-stat: circuitNumber1MaxValuesPrunedFromSingleVar=3
%%%mzn-stat: circuitNumber1HallCircuitChecks=731
%%%mzn-stat: circuitNumber1HallCircuitPrunings=38
%%%mzn-stat: circuitNumber1CircuitPreventPrunings=93
%%%mzn-stat: AverageConflictSize=6.2
%%%mzn-stat: NumUnitNogoodsLearned=0
%%%mzn-stat: AverageLearnedNogoodLength=16
%%%mzn-stat: AverageBacktrackAmount=0
%%%mzn-stat: AverageLbd=14.4
%%%mzn-stat: 2AutonomousSearchNumBackupCalled=2689
%%%mzn-stat: 2AutonomousSearchNumPredicatesRemoved=0
%%%mzn-stat: 2AutonomousSearchNumCalls=2694
%%%mzn-stat: 2AutonomousSearchNumPredicatesAdded=195
%%%mzn-stat: 2AutonomousSearchAverageSizeOfHeap=0.20935412026726058
%%%mzn-stat: 2AutonomousSearchNumAssignedPredicatesEncountered=564
%%%mzn-stat-end
maxleg = 356;
succ = array1d(1..50,[2, 4, 9, 5, 12, 7, 13, 6, 1, 8, 17, 14, 20, 22, 19, 24, 3, 10, 16, 23, 18, 34, 28, 29, 15, 11, 21, 36, 41, 33, 26, 25, 37, 35, 38, 46, 42, 45, 32, 48, 30, 27, 39, 40, 44, 49, 43, 47, 50, 31]);
% time elapsed: 0.41 s
----------
%%%mzn-stat: initTime=0.012113966
%%%mzn-stat: objective=350
%%%mzn-stat: nodes=3442
%%%mzn-stat: restarts=0
%%%mzn-stat: peakDepth=594
%%%mzn-stat: solveTime=0.033729834
%%%mzn-stat: variables=1114
%%%mzn-stat: propagators=816
%%%mzn-stat: failures=6
%%%mzn-stat: propagations=9603
%%%mzn-stat: nogoods=6
%%%mzn-stat: numAtomicConstraintsPropagated=0
%%%mzn-stat: circuitNumber1PropagationsTotal=528
%%%mzn-stat: circuitNumber1CircuitConflicts=3
%%%mzn-stat: circuitNumber1AlldiffConflicts=0
%%%mzn-stat: circuitNumber1TotalFixedEdgesAtConflict=129
%%%mzn-stat: circuitNumber1NumberOfConflicts=3
%%%mzn-stat: circuitNumber1GacPrunings=1684
%%%mzn-stat: circuitNumber1PropagationsThatGacPruned=267
%%%mzn-stat: circuitNumber1TotalPruningHallSetSize=2487
%%%mzn-stat: circuitNumber1NumberOfPruningExplanations=1684
%%%mzn-stat: circuitNumber1MaxPruningHallSetSize=20
%%%mzn-stat: circuitNumber1TotalSccSizeAtPruning=700
%%%mzn-stat: circuitNumber1NumberOfSccPruningCalls=267
%%%mzn-stat: circuitNumber1TotalVarsInvolvedInPruning=1638
%%%mzn-stat: circuitNumber1MaxValuesPrunedFromSingleVar=3
%%%mzn-stat: circuitNumber1HallCircuitChecks=860
%%%mzn-stat: circuitNumber1HallCircuitPrunings=42
%%%mzn-stat: circuitNumber1CircuitPreventPrunings=114
%%%mzn-stat: AverageConflictSize=5.5
%%%mzn-stat: NumUnitNogoodsLearned=0
%%%mzn-stat: AverageLearnedNogoodLength=20.333333333333332
%%%mzn-stat: AverageBacktrackAmount=0
%%%mzn-stat: AverageLbd=18
%%%mzn-stat: 2AutonomousSearchNumBackupCalled=3197
%%%mzn-stat: 2AutonomousSearchNumPredicatesRemoved=0
%%%mzn-stat: 2AutonomousSearchNumCalls=3203
%%%mzn-stat: 2AutonomousSearchNumPredicatesAdded=300
%%%mzn-stat: 2AutonomousSearchAverageSizeOfHeap=0.2338432719325632
%%%mzn-stat: 2AutonomousSearchNumAssignedPredicatesEncountered=749
%%%mzn-stat-end
maxleg = 350;
succ = array1d(1..50,[2, 4, 9, 5, 12, 7, 13, 6, 1, 8, 17, 14, 20, 22, 19, 24, 3, 10, 16, 23, 18, 34, 28, 29, 15, 11, 21, 36, 41, 33, 26, 39, 37, 35, 38, 46, 42, 45, 25, 48, 30, 27, 32, 40, 44, 49, 43, 47, 50, 31]);
% time elapsed: 0.42 s
----------
%%%mzn-stat: initTime=0.012113966
%%%mzn-stat: objective=344
%%%mzn-stat: nodes=3985
%%%mzn-stat: restarts=0
%%%mzn-stat: peakDepth=594
%%%mzn-stat: solveTime=0.038776816
%%%mzn-stat: variables=1114
%%%mzn-stat: propagators=816
%%%mzn-stat: failures=7
%%%mzn-stat: propagations=11005
%%%mzn-stat: nogoods=7
%%%mzn-stat: numAtomicConstraintsPropagated=0
%%%mzn-stat: circuitNumber1PropagationsTotal=613
%%%mzn-stat: circuitNumber1CircuitConflicts=4
%%%mzn-stat: circuitNumber1AlldiffConflicts=0
%%%mzn-stat: circuitNumber1TotalFixedEdgesAtConflict=174
%%%mzn-stat: circuitNumber1NumberOfConflicts=4
%%%mzn-stat: circuitNumber1GacPrunings=1947
%%%mzn-stat: circuitNumber1PropagationsThatGacPruned=310
%%%mzn-stat: circuitNumber1TotalPruningHallSetSize=2891
%%%mzn-stat: circuitNumber1NumberOfPruningExplanations=1947
%%%mzn-stat: circuitNumber1MaxPruningHallSetSize=20
%%%mzn-stat: circuitNumber1TotalSccSizeAtPruning=836
%%%mzn-stat: circuitNumber1NumberOfSccPruningCalls=310
%%%mzn-stat: circuitNumber1TotalVarsInvolvedInPruning=1892
%%%mzn-stat: circuitNumber1MaxValuesPrunedFromSingleVar=3
%%%mzn-stat: circuitNumber1HallCircuitChecks=989
%%%mzn-stat: circuitNumber1HallCircuitPrunings=48
%%%mzn-stat: circuitNumber1CircuitPreventPrunings=134
%%%mzn-stat: AverageConflictSize=5
%%%mzn-stat: NumUnitNogoodsLearned=0
%%%mzn-stat: AverageLearnedNogoodLength=23.428571428571427
%%%mzn-stat: AverageBacktrackAmount=0
%%%mzn-stat: AverageLbd=20.571428571428573
%%%mzn-stat: 2AutonomousSearchNumBackupCalled=3702
%%%mzn-stat: 2AutonomousSearchNumPredicatesRemoved=0
%%%mzn-stat: 2AutonomousSearchNumCalls=3709
%%%mzn-stat: 2AutonomousSearchNumPredicatesAdded=405
%%%mzn-stat: 2AutonomousSearchAverageSizeOfHeap=0.25289835535184685
%%%mzn-stat: 2AutonomousSearchNumAssignedPredicatesEncountered=938
%%%mzn-stat-end
maxleg = 344;
succ = array1d(1..50,[2, 4, 9, 5, 12, 7, 13, 6, 1, 8, 17, 14, 20, 22, 19, 24, 3, 10, 16, 23, 18, 34, 28, 29, 15, 11, 21, 36, 41, 33, 26, 39, 37, 35, 44, 46, 42, 40, 25, 48, 30, 27, 32, 45, 38, 49, 43, 47, 50, 31]);
% time elapsed: 0.42 s
----------
%%%mzn-stat: initTime=0.012113966
%%%mzn-stat: objective=342
%%%mzn-stat: nodes=4535
%%%mzn-stat: restarts=0
%%%mzn-stat: peakDepth=594
%%%mzn-stat: solveTime=0.043750921
%%%mzn-stat: variables=1114
%%%mzn-stat: propagators=816
%%%mzn-stat: failures=7
%%%mzn-stat: propagations=12382
%%%mzn-stat: nogoods=7
%%%mzn-stat: numAtomicConstraintsPropagated=0
%%%mzn-stat: circuitNumber1PropagationsTotal=693
%%%mzn-stat: circuitNumber1CircuitConflicts=4
%%%mzn-stat: circuitNumber1AlldiffConflicts=0
%%%mzn-stat: circuitNumber1TotalFixedEdgesAtConflict=174
%%%mzn-stat: circuitNumber1NumberOfConflicts=4
%%%mzn-stat: circuitNumber1GacPrunings=2202
%%%mzn-stat: circuitNumber1PropagationsThatGacPruned=350
%%%mzn-stat: circuitNumber1TotalPruningHallSetSize=3232
%%%mzn-stat: circuitNumber1NumberOfPruningExplanations=2202
%%%mzn-stat: circuitNumber1MaxPruningHallSetSize=20
%%%mzn-stat: circuitNumber1TotalSccSizeAtPruning=924
%%%mzn-stat: circuitNumber1NumberOfSccPruningCalls=350
%%%mzn-stat: circuitNumber1TotalVarsInvolvedInPruning=2140
%%%mzn-stat: circuitNumber1MaxValuesPrunedFromSingleVar=3
%%%mzn-stat: circuitNumber1HallCircuitChecks=1122
%%%mzn-stat: circuitNumber1HallCircuitPrunings=53
%%%mzn-stat: circuitNumber1CircuitPreventPrunings=153
%%%mzn-stat: AverageConflictSize=5
%%%mzn-stat: NumUnitNogoodsLearned=0
%%%mzn-stat: AverageLearnedNogoodLength=23.428571428571427
%%%mzn-stat: AverageBacktrackAmount=0
%%%mzn-stat: AverageLbd=20.571428571428573
%%%mzn-stat: 2AutonomousSearchNumBackupCalled=4215
%%%mzn-stat: 2AutonomousSearchNumPredicatesRemoved=0
%%%mzn-stat: 2AutonomousSearchNumCalls=4223
%%%mzn-stat: 2AutonomousSearchNumPredicatesAdded=405
%%%mzn-stat: 2AutonomousSearchAverageSizeOfHeap=0.2668718920198911
%%%mzn-stat: 2AutonomousSearchNumAssignedPredicatesEncountered=1127
%%%mzn-stat-end
maxleg = 342;
succ = array1d(1..50,[2, 4, 9, 5, 12, 7, 13, 6, 1, 8, 17, 14, 20, 22, 19, 24, 3, 10, 16, 23, 18, 34, 28, 29, 15, 11, 21, 36, 41, 33, 26, 39, 37, 35, 44, 49, 42, 40, 25, 48, 30, 27, 32, 45, 38, 50, 43, 47, 46, 31]);
% time elapsed: 0.43 s
----------
%%%mzn-stat: initTime=0.012113966
%%%mzn-stat: objective=339
%%%mzn-stat: nodes=5065
%%%mzn-stat: restarts=0
%%%mzn-stat: peakDepth=594
%%%mzn-stat: solveTime=0.048199162
%%%mzn-stat: variables=1114
%%%mzn-stat: propagators=816
%%%mzn-stat: failures=7
%%%mzn-stat: propagations=13768
%%%mzn-stat: nogoods=7
%%%mzn-stat: numAtomicConstraintsPropagated=0
%%%mzn-stat: circuitNumber1PropagationsTotal=773
%%%mzn-stat: circuitNumber1CircuitConflicts=4
%%%mzn-stat: circuitNumber1AlldiffConflicts=0
%%%mzn-stat: circuitNumber1TotalFixedEdgesAtConflict=174
%%%mzn-stat: circuitNumber1NumberOfConflicts=4
%%%mzn-stat: circuitNumber1GacPrunings=2455
%%%mzn-stat: circuitNumber1PropagationsThatGacPruned=390
%%%mzn-stat: circuitNumber1TotalPruningHallSetSize=3571
%%%mzn-stat: circuitNumber1NumberOfPruningExplanations=2455
%%%mzn-stat: circuitNumber1MaxPruningHallSetSize=20
%%%mzn-stat: circuitNumber1TotalSccSizeAtPruning=1012
%%%mzn-stat: circuitNumber1NumberOfSccPruningCalls=390
%%%mzn-stat: circuitNumber1TotalVarsInvolvedInPruning=2386
%%%mzn-stat: circuitNumber1MaxValuesPrunedFromSingleVar=3
%%%mzn-stat: circuitNumber1HallCircuitChecks=1255
%%%mzn-stat: circuitNumber1HallCircuitPrunings=57
%%%mzn-stat: circuitNumber1CircuitPreventPrunings=172
%%%mzn-stat: AverageConflictSize=5
%%%mzn-stat: NumUnitNogoodsLearned=0
%%%mzn-stat: AverageLearnedNogoodLength=23.428571428571427
%%%mzn-stat: AverageBacktrackAmount=0
%%%mzn-stat: AverageLbd=20.571428571428573
%%%mzn-stat: 2AutonomousSearchNumBackupCalled=4708
%%%mzn-stat: 2AutonomousSearchNumPredicatesRemoved=0
%%%mzn-stat: 2AutonomousSearchNumCalls=4717
%%%mzn-stat: 2AutonomousSearchNumPredicatesAdded=405
%%%mzn-stat: 2AutonomousSearchAverageSizeOfHeap=0.2789908840364638
%%%mzn-stat: 2AutonomousSearchNumAssignedPredicatesEncountered=1316
%%%mzn-stat-end
maxleg = 339;
succ = array1d(1..50,[4, 5, 9, 2, 12, 7, 13, 6, 1, 8, 17, 14, 20, 22, 19, 24, 3, 10, 16, 23, 18, 34, 28, 29, 15, 11, 21, 36, 41, 33, 26, 39, 37, 35, 44, 49, 42, 40, 25, 48, 30, 27, 32, 45, 38, 50, 43, 47, 46, 31]);
% time elapsed: 0.43 s
----------
%%%mzn-stat: initTime=0.012113966
%%%mzn-stat: objective=337
%%%mzn-stat: nodes=5584
%%%mzn-stat: restarts=0
%%%mzn-stat: peakDepth=594
%%%mzn-stat: solveTime=0.053882794
%%%mzn-stat: variables=1114
%%%mzn-stat: propagators=816
%%%mzn-stat: failures=9
%%%mzn-stat: propagations=15219
%%%mzn-stat: nogoods=9
%%%mzn-stat: numAtomicConstraintsPropagated=0
%%%mzn-stat: circuitNumber1PropagationsTotal=862
%%%mzn-stat: circuitNumber1CircuitConflicts=5
%%%mzn-stat: circuitNumber1AlldiffConflicts=0
%%%mzn-stat: circuitNumber1TotalFixedEdgesAtConflict=209
%%%mzn-stat: circuitNumber1NumberOfConflicts=5
%%%mzn-stat: circuitNumber1GacPrunings=2723
%%%mzn-stat: circuitNumber1PropagationsThatGacPruned=434
%%%mzn-stat: circuitNumber1TotalPruningHallSetSize=3964
%%%mzn-stat: circuitNumber1NumberOfPruningExplanations=2723
%%%mzn-stat: circuitNumber1MaxPruningHallSetSize=20
%%%mzn-stat: circuitNumber1TotalSccSizeAtPruning=1148
%%%mzn-stat: circuitNumber1NumberOfSccPruningCalls=434
%%%mzn-stat: circuitNumber1TotalVarsInvolvedInPruning=2644
%%%mzn-stat: circuitNumber1MaxValuesPrunedFromSingleVar=3
%%%mzn-stat: circuitNumber1HallCircuitChecks=1415
%%%mzn-stat: circuitNumber1HallCircuitPrunings=61
%%%mzn-stat: circuitNumber1CircuitPreventPrunings=195
%%%mzn-stat: AverageConflictSize=4.555555555555555
%%%mzn-stat: NumUnitNogoodsLearned=0
%%%mzn-stat: AverageLearnedNogoodLength=23.22222222222222
%%%mzn-stat: AverageBacktrackAmount=0
%%%mzn-stat: AverageLbd=17.88888888888889
%%%mzn-stat: 2AutonomousSearchNumBackupCalled=5187
%%%mzn-stat: 2AutonomousSearchNumPredicatesRemoved=0
%%%mzn-stat: 2AutonomousSearchNumCalls=5197
%%%mzn-stat: 2AutonomousSearchNumPredicatesAdded=506
%%%mzn-stat: 2AutonomousSearchAverageSizeOfHeap=0.30575331922262844
%%%mzn-stat: 2AutonomousSearchNumAssignedPredicatesEncountered=1589
%%%mzn-stat-end
maxleg = 337;
succ = array1d(1..50,[4, 5, 9, 2, 12, 7, 13, 6, 1, 8, 17, 14, 20, 22, 19, 24, 3, 10, 16, 23, 18, 34, 28, 29, 15, 11, 21, 36, 46, 33, 26, 39, 37, 35, 44, 31, 42, 40, 25, 48, 30, 50, 32, 45, 38, 49, 43, 47, 41, 27]);
% time elapsed: 0.44 s
----------
%%%mzn-stat: initTime=0.012113966
%%%mzn-stat: objective=337
%%%mzn-stat: nodes=2232807
%%%mzn-stat: restarts=0
%%%mzn-stat: peakDepth=594
%%%mzn-stat: solveTime=1799.638538561
%%%mzn-stat: variables=1114
%%%mzn-stat: propagators=816
%%%mzn-stat: failures=2195996
%%%mzn-stat: propagations=89047872
%%%mzn-stat: nogoods=2195996
%%%mzn-stat: numAtomicConstraintsPropagated=0
%%%mzn-stat: circuitNumber1PropagationsTotal=11945199
%%%mzn-stat: circuitNumber1CircuitConflicts=1726469
%%%mzn-stat: circuitNumber1AlldiffConflicts=5255
%%%mzn-stat: circuitNumber1TotalFixedEdgesAtConflict=78648210
%%%mzn-stat: circuitNumber1NumberOfConflicts=1731724
%%%mzn-stat: circuitNumber1GacPrunings=15705476
%%%mzn-stat: circuitNumber1PropagationsThatGacPruned=7127148
%%%mzn-stat: circuitNumber1TotalPruningHallSetSize=29029657
%%%mzn-stat: circuitNumber1NumberOfPruningExplanations=15705476
%%%mzn-stat: circuitNumber1MaxPruningHallSetSize=20
%%%mzn-stat: circuitNumber1TotalSccSizeAtPruning=19632513
%%%mzn-stat: circuitNumber1NumberOfSccPruningCalls=7127148
%%%mzn-stat: circuitNumber1TotalVarsInvolvedInPruning=13863887
%%%mzn-stat: circuitNumber1MaxValuesPrunedFromSingleVar=6
%%%mzn-stat: circuitNumber1HallCircuitChecks=21898388
%%%mzn-stat: circuitNumber1HallCircuitPrunings=2029408
%%%mzn-stat: circuitNumber1CircuitPreventPrunings=6011046
%%%mzn-stat: AverageConflictSize=22.010254572412702
%%%mzn-stat: NumUnitNogoodsLearned=0
%%%mzn-stat: AverageLearnedNogoodLength=49.433412447017204
%%%mzn-stat: AverageBacktrackAmount=0
%%%mzn-stat: AverageLbd=30.151534884398696
%%%mzn-stat: 2AutonomousSearchNumBackupCalled=5187
%%%mzn-stat: 2AutonomousSearchNumPredicatesRemoved=0
%%%mzn-stat: 2AutonomousSearchNumCalls=5197
%%%mzn-stat: 2AutonomousSearchNumPredicatesAdded=2172
%%%mzn-stat: 2AutonomousSearchAverageSizeOfHeap=0.30575331922262844
%%%mzn-stat: 2AutonomousSearchNumAssignedPredicatesEncountered=1589
%%%mzn-stat-end
